NAME : B-n31-k5
COMMENT : (Augerat et al, No of trucks: 5, Optimal value: 672)
TYPE : CVRP
DIMENSION : 31
EDGE_WEIGHT_TYPE : EUC_2D 
CAPACITY : 100
NODE_COORD_SECTION 
 1 17 76
 2 24 6
 3 96 29
 4 14 19
 5 14 32
 6 0 34
 7 16 22
 8 20 26
 9 22 28
 10 17 23
 11 98 30
 12 30 8
 13 23 27
 14 19 23
 15 34 7
 16 31 7
 17 0 37
 18 19 23
 19 0 36
 20 26 7
 21 98 32
 22 5 40
 23 17 26
 24 21 26
 25 28 8
 26 1 35
 27 27 28
 28 99 30
 29 26 28
 30 17 29
 31 20 26
DEMAND_SECTION 
1 0 
2 25 
3 3 
4 13 
5 17 
6 16 
7 9 
8 22 
9 10 
10 16 
11 8 
12 3 
13 16 
14 16 
15 10 
16 24 
17 16 
18 15 
19 14 
20 5 
21 12 
22 2 
23 18 
24 20 
25 15 
26 8 
27 22 
28 15 
29 10 
30 13 
31 19 
DEPOT_SECTION 
 1  
 -1  
EOF 
